p cnf 475 2
-98 -136 -337 -270 -54 -61 -118 -300 -361 -369 -351 -201 -20 -59 -359 -285 -421 -420 -223 -154 -263 -11 -327 -298 -174 -150 -423 -365 -408 -305 -107 -189 -240 -364 -157 -67 -395 -93 -69 -26 -320 -216 -109 -332 -44 -464 -314 -129 -68 -229 -184 -163 1 5 11 16 20 26 28 31 32 44 46 47 48 49 50 51 54 59 61 67 68 69 76 85 86 90 93 98 100 101 103 104 107 109 110 118 121 129 131 135 136 142 144 150 154 157 158 163 165 166 174 178 184 189 198 201 205 211 216 218 223 229 232 239 240 253 258 263 265 270 279 280 281 285 286 287 293 296 298 300 305 308 314 316 320 326 327 332 337 348 351 354 359 361 363 364 365 369 370 378 379 391 392 395 396 406 408 410 411 419 420 421 422 423 428 431 434 440 452 455 459 464 466 471 473 0
